
<<< setup

Version identifier: 22.1.1.0 | 2022-11-27 | 9160aff4d
Tried aggregator 1 time.
LP Presolve eliminated 104 rows and 73 columns.
Reduced LP has 3 rows, 18 columns, and 18 nonzeros.
Presolve time = 0.00 sec. (0.04 ticks)

Iteration log . . .
Iteration:     1   Dual objective     =          1217.880397
main returns 0

<<< main


<<< done

